CMD:
./solvers/bin/cadical --plain --no-reduce -t 1600 ./data/cnfs//qspiflash_dualflexpress_divthree-p069/qspiflash_dualflexpress_divthree-p069.41.cnf

c --- [ banner ] -------------------------------------------------------------
c 
c CaDiCaL SAT Solver
c Copyright (c) 2016-2024
c A. Biere, M. Fleury, N. Froleyks, K. Fazekas, F. Pollitt, T. Faller
c JKU Linz, University of Freiburg, TU Wien
c 
c Version 2.1.3 5296d3d2a9bf48c154ab2acb5e44625776d821bf
c g++ (Gentoo 12.3.1_p20230526 p2) 12.3.1 20230526 -Wall -Wextra -O3 -DNDEBUG
c Sat Aug 9 07:26:21 PDT 2025 Linux cedar2.int.cedar.computecanada.ca 5.14.0-362.24.2.el9_3.x86_64 x86_64
c 
c --- [ limit ] --------------------------------------------------------------
c 
c setting time limit to 1600 seconds real time (due to '-t 1600')
c 
c --- [ parsing input ] ------------------------------------------------------
c 
c reading DIMACS file from './data/cnfs//qspiflash_dualflexpress_divthree-p069/qspiflash_dualflexpress_divthree-p069.41.cnf'
c opening file to read './data/cnfs//qspiflash_dualflexpress_divthree-p069/qspiflash_dualflexpress_divthree-p069.41.cnf'
c found 'p cnf 124068 361580' header
c parsed 361580 clauses in 0.06 seconds process time
c 
c --- [ options ] ------------------------------------------------------------
c 
c   --compact=false                (different from default 'true')
c   --decompose=false              (different from default 'true')
c   --deduplicate=false            (different from default 'true')
c   --elim=false                   (different from default 'true')
c   --probe=false                  (different from default 'true')
c   --reduce=false                 (different from default 'true')
c   --subsume=false                (different from default 'true')
c   --ternary=false                (different from default 'true')
c   --transred=false               (different from default 'true')
c   --vivify=false                 (different from default 'true')
c 
c --- [ solving ] ------------------------------------------------------------
c 
c time measured in process time since initialization
c 
c  seconds  reductions  redundant  irredundant
c         MB    restarts       trail       variables
c          level   conflicts       glue          remaining
c 
c *  0.06 58  0 0   0    0    0  0% 0 342070 110870 89%
c {  0.09 60  0 0   0    0    0  0% 0 342070 110870 89%
c i  0.10 60 124 0   0   18   13 26% 3 342070 110847 89%
c i  0.10 60 114 0   0   20   14 25% 2 342070 110838 89%
c i  0.11 60 44 0   5  124  109 18% 3 342070 110652 89%
c i  0.11 60 43 0   5  146  126 18% 3 342070 110598 89%
c i  0.11 60 43 0   5  148  127 18% 3 342070 110454 89%
c i  0.11 60 42 0   5  150  128 18% 3 342070 110306 89%
c i  0.11 60 42 0   5  153  130 18% 3 342070 110262 89%
c i  0.12 60 33 0   8  243  216 18% 3 342070 110109 89%
c i  0.12 60 33 0   8  244  216 18% 3 342070 110055 89%
c i  0.13 61 32 0  11  312  280 18% 3 342070 110047 89%
c i  0.13 61 31 0  14  328  292 18% 3 342070 110044 89%
c i  0.14 61 32 0  16  417  374 18% 3 342070 110020 89%
c i  0.14 61 32 0  16  421  375 18% 3 342070 109997 89%
c i  0.14 61 32 0  16  425  376 18% 3 342070 109974 89%
c i  0.14 61 32 0  16  427  377 18% 3 342070 109965 89%
c i  0.14 61 33 0  16  438  387 18% 3 342070 109958 89%
c i  0.14 61 34 0  16  458  403 19% 3 342070 109940 89%
c i  0.15 61 33 0  18  527  466 19% 3 342070 109927 89%
c 
c  seconds  reductions  redundant  irredundant
c         MB    restarts       trail       variables
c          level   conflicts       glue          remaining
c 
c i  0.15 61 32 0  22  544  480 19% 3 342070 109883 89%
c i  0.16 61 31 0  23  757  676 19% 3 342070 109869 89%
c i  0.17 61 35 0  25  945  849 21% 3 342070 109857 89%
c }  0.18 61 34 0  40 1002  901 20% 3 342070 109857 89%
c [  0.18 61  0 0  40 1002  901  0% 0 342070 109857 89%
c O  0.19 61 745 0  40 1003  902 62% 2 342070 109857 89%
c i  0.20 61 729 0  40 1024  921 65% 2 342070 109853 89%
c i  0.22 61 684 0  40 1117 1005 58% 3 342070 109849 89%
c i  0.31 61 589 0  40 1614 1460 47% 4 342070 109845 89%
c ]  0.55 61 304 0  41 3003 2721 30% 8 342070 109845 89%
c {  0.55 61 34 0  41 3003 2721 20% 3 342070 109845 89%
c F  0.55 61 34 0  42 3004 2722 20% 3 342070 109845 89%
c i  0.56 61 34 0  51 3039 2755 20% 3 342070 109842 89%
c i  0.56 61 34 0  52 3046 2760 20% 3 342070 109837 89%
c i  0.58 61 32 0  81 3174 2871 20% 3 342070 109834 89%
c i  0.58 61 32 0  91 3211 2907 20% 3 342070 109829 89%
c i  0.59 61 31 0  94 3237 2930 20% 3 342070 109826 89%
c i  0.60 62 31 0 107 3390 3061 20% 3 342070 109821 89%
c i  0.63 62 29 0 155 3607 3253 19% 4 342070 109803 89%
c i  0.63 62 29 0 156 3610 3255 19% 4 342070 109799 88%
c 
c  seconds  reductions  redundant  irredundant
c         MB    restarts       trail       variables
c          level   conflicts       glue          remaining
c 
c i  0.64 62 29 0 159 3669 3306 19% 4 342070 109795 88%
c i  0.71 62 28 0 238 4188 3771 20% 4 342070 109756 88%
c i  0.72 62 28 0 246 4251 3819 20% 4 342070 109755 88%
c i  0.73 62 28 0 255 4289 3853 19% 4 342070 109749 88%
c i  0.75 62 27 0 270 4359 3909 19% 4 342070 109748 88%
c i  0.75 62 27 0 270 4361 3909 19% 4 342070 109713 88%
c i  0.75 62 27 0 270 4368 3915 19% 4 342070 109666 88%
c i  0.75 62 27 0 270 4369 3915 19% 4 342070 109656 88%
c i  0.75 62 27 0 270 4371 3916 19% 4 342070 109646 88%
c i  0.75 62 27 0 270 4372 3916 19% 4 342070 109632 88%
c i  0.75 62 27 0 270 4373 3916 19% 4 342070 109626 88%
c i  0.77 62 28 0 273 4547 4062 20% 4 342070 109613 88%
c i  0.79 62 28 0 294 4681 4174 20% 4 342070 109609 88%
c i  0.79 62 28 0 303 4714 4203 20% 4 342070 109605 88%
c i  0.79 62 27 0 305 4743 4225 20% 4 342070 109561 88%
c i  0.81 62 28 0 309 4920 4381 20% 4 342070 109557 88%
c i  0.83 62 28 0 317 5053 4502 20% 4 342070 109514 88%
c i  0.85 62 27 0 358 5282 4697 20% 4 342070 109296 88%
c i  0.85 62 27 0 358 5288 4702 20% 4 342070 109256 88%
c i  0.89 62 25 0 398 5591 4948 20% 4 342070 108977 88%
c 
c  seconds  reductions  redundant  irredundant
c         MB    restarts       trail       variables
c          level   conflicts       glue          remaining
c 
c i  0.89 62 25 0 400 5609 4963 20% 4 342070 108950 88%
c i  0.91 62 25 0 411 5669 5012 20% 4 342070 108946 88%
c i  0.91 62 25 0 423 5719 5059 20% 4 342070 108943 88%
c i  0.91 62 25 0 423 5722 5061 20% 4 342070 108939 88%
c i  0.91 62 25 0 423 5729 5067 20% 4 342070 108934 88%
c i  0.93 62 24 0 446 5896 5215 20% 4 342070 108930 88%
c i  0.94 62 24 0 451 5991 5289 20% 4 342070 108924 88%
c #  0.94 62 24 0 455 6007 5305 20% 4 342070 108924 88%
c i  0.95 62 24 0 457 6036 5330 20% 4 342070 108920 88%
c i  0.96 62 24 0 457 6140 5412 20% 4 342070 108902 88%
c i  0.96 62 24 0 457 6159 5424 20% 4 342070 108172 87%
c i  0.97 62 23 0 463 6234 5491 20% 4 342070 108171 87%
c i  0.97 62 23 0 463 6245 5499 20% 4 342070 108167 87%
c i  0.97 62 23 0 463 6257 5504 20% 4 342070 108166 87%
c i  0.97 62 23 0 463 6258 5504 20% 4 342070 108141 87%
c i  0.97 62 23 0 463 6312 5540 20% 4 342070 105585 85%
c }  0.97 62 23 0 463 6314 5540 20% 4 342070 105511 85%
c 0  0.97 62 23 0 463 6314 5540 20% 4 342070 105511 85%
c 
c --- [ result ] -------------------------------------------------------------
c 
s UNSATISFIABLE
c 
c --- [ run-time profiling ] -------------------------------------------------
c 
c process time taken by individual solving procedures
c (percentage relative to process time for solving)
c 
c         0.91   99.99% search
c         0.52   56.64% unstable
c         0.37   40.27% stable
c         0.06    6.60% parse
c         0.03    3.08% lucky
c         0.00    0.00% simplify
c   =================================
c         0.91   93.75% solve
c 
c last line shows process time for solving
c (percentage relative to total process time)
c 
c --- [ statistics ] ---------------------------------------------------------
c 
c chronological:              2513        39.80 %  of conflicts
c conflicts:                  6314      6929.61    per second
c decisions:                 18396     20189.60    per second
c fixed:                     18523        14.93 %  of all variables
c learned:                    5976        94.65 %  per conflict
c learned_lits:             128249       100.00 %  learned literals
c minimized:                     0         0.00 %  learned literals
c shrunken:                  19430        15.15 %  learned literals
c minishrunken:              25541        19.92 %  learned literals
c otfs:                         68         1.08 %  of conflict
c propagations:           14965599        16.42 M  per second
c rephased:                      3      2104.67    interval
c restarts:                    463        13.64    interval
c stabilizing:                   1        31.69 %  of conflicts
c subsumed:                    361         0.10 %  of all clauses
c strengthened:                 67         0.02 %  of all clauses
c 
c seconds are measured in process time for solving
c 
c --- [ resources ] ----------------------------------------------------------
c 
c total process time since initialization:         0.97    seconds
c total real time since initialization:            0.98    seconds
c maximum resident set size of process:           59.85    MB
c 
c --- [ shutting down ] ------------------------------------------------------
c 
c exit 20
